solution status: time limit reached
objective value:                         262202.34566
y#1                                                 1 	(obj:5700)
y#2                                                 1 	(obj:5700)
y#3                                                 1 	(obj:5700)
y#4                                                 1 	(obj:5700)
y#5                                                 1 	(obj:5700)
y#6                                                 1 	(obj:5700)
y#7                                                 1 	(obj:5700)
y#8                                                 1 	(obj:5700)
y#9                                                 1 	(obj:5700)
y#10                                                1 	(obj:5700)
y#11                                                1 	(obj:5700)
y#12                                                1 	(obj:5700)
y#13                                                1 	(obj:5700)
y#14                                                1 	(obj:5700)
y#15                                                1 	(obj:5700)
y#16                                                1 	(obj:5700)
y#17                                                1 	(obj:5700)
y#18                                                1 	(obj:5700)
y#19                                                1 	(obj:5700)
y#20                                                1 	(obj:5700)
y#22                                                1 	(obj:5700)
y#23                                                1 	(obj:5700)
y#24                                                1 	(obj:5700)
y#26                                                1 	(obj:5700)
y#27                                                1 	(obj:5700)
y#28                                                1 	(obj:5700)
y#29                                                1 	(obj:5700)
y#30                                                1 	(obj:5700)
y#31                                                1 	(obj:5700)
y#33                                                1 	(obj:5700)
y#34                                                1 	(obj:5700)
y#35                                                1 	(obj:5700)
y#36                                                1 	(obj:5700)
y#37                                                1 	(obj:5700)
y#38                                                1 	(obj:5700)
y#39                                                1 	(obj:5700)
y#40                                                1 	(obj:5700)
y#41                                                1 	(obj:5700)
y#42                                                1 	(obj:5700)
y#43                                                1 	(obj:5700)
y#44                                                1 	(obj:5700)
y#45                                                1 	(obj:5700)
y#46                                                1 	(obj:5700)
y#47                                                1 	(obj:5700)
y#48                                                1 	(obj:5700)
y#50                                                1 	(obj:5700)
x#1#7                                               1 	(obj:0.01734)
x#2#19                                              1 	(obj:0.00629)
x#3#1                                               1 	(obj:0.00782)
x#4#36                                              1 	(obj:0.01105)
x#5#3                                               1 	(obj:0.00561)
x#6#8                                               1 	(obj:0.01411)
x#7#22                                              1 	(obj:0.01445)
x#8#5                                               1 	(obj:0.01275)
x#9#20                                              1 	(obj:0.00799)
x#10#34                                             1 	(obj:0.01428)
x#11#15                                             1 	(obj:0.01853)
x#12#2                                              1 	(obj:0.01207)
x#13#7                                              1 	(obj:0.02448)
x#14#24                                             1 	(obj:0.00714)
x#15#4                                              1 	(obj:0.01717)
x#16#4                                              1 	(obj:0.01037)
x#17#18                                             1 	(obj:0.0119)
x#18#36                                             1 	(obj:0.00782)
x#19#12                                             1 	(obj:0.00153)
x#20#19                                             1 	(obj:0.00782)
x#21#37                                             1 	(obj:0.00799)
x#22#18                                             1 	(obj:0.00952)
x#23#11                                             1 	(obj:0.00595)
x#24#30                                             1 	(obj:0.01462)
x#25#15                                             1 	(obj:0.0051)
x#26#13                                             1 	(obj:0.0153)
x#27#48                                             1 	(obj:0.00476)
x#28#4                                              1 	(obj:0.01632)
x#29#20                                             1 	(obj:0.01683)
x#30#5                                              1 	(obj:0.01564)
x#31#17                                             1 	(obj:0.01428)
x#32#41                                             1 	(obj:0.01938)
x#33#38                                             1 	(obj:0.00578)
x#34#16                                             1 	(obj:0.00374)
x#35#14                                             1 	(obj:0.01428)
x#36#27                                             1 	(obj:0.01054)
x#37#35                                             1 	(obj:0.00425)
x#38#17                                             1 	(obj:0.01428)
x#39#23                                             1 	(obj:0.01445)
x#40#11                                             1 	(obj:0.01632)
x#41#31                                             1 	(obj:0.00119)
x#42#1                                              1 	(obj:0.00646)
x#43#19                                             1 	(obj:0.00646)
x#44#41                                             1 	(obj:0.01496)
x#45#26                                             1 	(obj:0.00731)
x#46#9                                              1 	(obj:0.01836)
x#47#3                                              1 	(obj:0.00918)
x#48#30                                             1 	(obj:0.01292)
x#49#16                                             1 	(obj:0.00799)
x#50#3                                              1 	(obj:0.01615)
x#51#30                                             1 	(obj:0.00595)
x#52#26                                             1 	(obj:0.0153)
x#53#50                                             1 	(obj:0.00493)
x#54#44                                             1 	(obj:0.01258)
x#55#16                                             1 	(obj:0.01054)
x#56#43                                             1 	(obj:0.01564)
x#57#7                                              1 	(obj:0.00884)
x#58#9                                              1 	(obj:0.00187)
x#59#48                                             1 	(obj:0.00493)
x#60#27                                             1 	(obj:0.01292)
x#61#13                                             1 	(obj:0.00663)
x#62#6                                              1 	(obj:0.01122)
x#63#30                                             1 	(obj:0.01717)
x#64#36                                             1 	(obj:0.00527)
x#65#1                                              1 	(obj:0.01751)
x#66#11                                             1 	(obj:0.01292)
x#67#16                                             1 	(obj:0.00867)
x#68#4                                              1 	(obj:0.01904)
x#69#17                                             1 	(obj:0.00221)
x#70#26                                             1 	(obj:0.01598)
x#71#44                                             1 	(obj:0.01955)
x#72#12                                             1 	(obj:0.02822)
x#73#43                                             1 	(obj:0.00935)
x#74#44                                             1 	(obj:0.00068)
x#75#5                                              1 	(obj:0.0204)
x#76#39                                             1 	(obj:0.0136)
x#77#39                                             1 	(obj:0.01122)
x#78#36                                             1 	(obj:0.00595)
x#79#41                                             1 	(obj:0.01428)
x#80#4                                              1 	(obj:0.01853)
x#81#41                                             1 	(obj:0.00595)
x#82#34                                             1 	(obj:0.01853)
x#83#41                                             1 	(obj:0.01955)
x#84#19                                             1 	(obj:0.01547)
x#85#35                                             1 	(obj:0.01972)
x#86#28                                             1 	(obj:0.00901)
x#87#1                                              1 	(obj:0.01445)
x#88#4                                              1 	(obj:0.02125)
x#89#34                                             1 	(obj:0.00612)
x#90#29                                             1 	(obj:0.00986)
x#91#27                                             1 	(obj:0.00595)
x#92#47                                             1 	(obj:0.02091)
x#93#36                                             1 	(obj:0.01088)
x#94#37                                             1 	(obj:0.00561)
x#95#8                                              1 	(obj:0.00323)
x#96#10                                             1 	(obj:0.01632)
x#97#17                                             1 	(obj:0.01819)
x#98#42                                             1 	(obj:0.01105)
x#99#41                                             1 	(obj:0.01445)
x#100#35                                            1 	(obj:0.0204)
x#101#37                                            1 	(obj:0.01122)
x#102#5                                             1 	(obj:0.01632)
x#103#29                                            1 	(obj:0.00799)
x#104#13                                            1 	(obj:0.01496)
x#105#35                                            1 	(obj:0.00255)
x#106#3                                             1 	(obj:0.01156)
x#107#1                                             1 	(obj:0.01377)
x#108#40                                            1 	(obj:0.00544)
x#109#10                                            1 	(obj:0.00476)
x#110#37                                            1 	(obj:0.00357)
x#111#4                                             1 	(obj:0.00901)
x#112#4                                             1 	(obj:0.01598)
x#113#26                                            1 	(obj:0.01292)
x#114#3                                             1 	(obj:0.00816)
x#115#4                                             1 	(obj:0.01411)
x#116#31                                            1 	(obj:0.0221)
x#117#28                                            1 	(obj:0.01768)
x#118#24                                            1 	(obj:0.01649)
x#119#13                                            1 	(obj:0.00663)
x#120#47                                            1 	(obj:0.01411)
x#121#7                                             1 	(obj:0.00816)
x#122#10                                            1 	(obj:0.00459)
x#123#20                                            1 	(obj:0.00748)
x#124#45                                            1 	(obj:0.00391)
x#125#27                                            1 	(obj:0.01326)
x#126#22                                            1 	(obj:0.01666)
x#127#39                                            1 	(obj:0.01258)
x#128#22                                            1 	(obj:0.01411)
x#129#44                                            1 	(obj:0.0017)
x#130#46                                            1 	(obj:0.00629)
x#131#3                                             1 	(obj:0.00595)
x#132#23                                            1 	(obj:0.00731)
x#133#43                                            1 	(obj:0.00969)
x#134#50                                            1 	(obj:0.00255)
x#135#22                                            1 	(obj:0.01734)
x#136#29                                            1 	(obj:0.00578)
x#137#1                                             1 	(obj:0.01275)
x#138#2                                             1 	(obj:0.01054)
x#139#33                                            1 	(obj:0.00374)
x#140#37                                            1 	(obj:0.00765)
x#141#29                                            1 	(obj:0.01258)
x#142#28                                            1 	(obj:0.01751)
x#143#26                                            1 	(obj:0.01666)
x#144#28                                            1 	(obj:0.00238)
x#145#3                                             1 	(obj:0.02108)
x#146#44                                            1 	(obj:0.00663)
x#147#20                                            1 	(obj:0.01377)
x#148#31                                            1 	(obj:0.01088)
x#149#7                                             1 	(obj:0.01411)
x#150#9                                             1 	(obj:0.00714)
x#151#19                                            1 	(obj:0.01717)
x#152#39                                            1 	(obj:0.00119)
x#153#19                                            1 	(obj:0.01394)
x#154#41                                            1 	(obj:0.02822)
x#155#17                                            1 	(obj:0.00782)
x#156#39                                            1 	(obj:0.0119)
x#157#6                                             1 	(obj:0.01938)
x#158#34                                            1 	(obj:0.01224)
x#159#27                                            1 	(obj:0.01054)
x#160#29                                            1 	(obj:0.01547)
x#161#41                                            1 	(obj:0.01275)
x#162#5                                             1 	(obj:0.02312)
x#163#19                                            1 	(obj:0.00408)
x#164#8                                             1 	(obj:0.00595)
x#165#15                                            1 	(obj:0.00544)
x#166#44                                            1 	(obj:0.02125)
x#167#3                                             1 	(obj:0.0153)
x#168#24                                            1 	(obj:0.00102)
x#169#36                                            1 	(obj:0.00663)
x#170#4                                             1 	(obj:0.00646)
x#171#36                                            1 	(obj:0.0051)
x#172#26                                            1 	(obj:0.01921)
x#173#3                                             1 	(obj:0.02227)
x#174#18                                            1 	(obj:0.00731)
x#175#13                                            1 	(obj:0.00374)
x#176#12                                            1 	(obj:0.0068)
x#177#17                                            1 	(obj:0.01292)
x#178#43                                            1 	(obj:0.01649)
x#179#39                                            1 	(obj:0.00867)
x#180#22                                            1 	(obj:0.00629)
x#181#12                                            1 	(obj:0.01666)
x#182#33                                            1 	(obj:0.00697)
x#183#11                                            1 	(obj:0.02057)
x#184#1                                             1 	(obj:0.01564)
x#185#7                                             1 	(obj:0.02397)
x#186#30                                            1 	(obj:0.0102)
x#187#36                                            1 	(obj:0.0051)
x#188#4                                             1 	(obj:0.01836)
x#189#11                                            1 	(obj:0.02584)
x#190#5                                             1 	(obj:0.02023)
x#191#3                                             1 	(obj:0.01343)
x#192#11                                            1 	(obj:0.02346)
x#193#43                                            1 	(obj:0.00357)
x#194#1                                             1 	(obj:0.01275)
x#195#44                                            1 	(obj:0.01326)
x#196#26                                            1 	(obj:0.01564)
x#197#14                                            1 	(obj:0.00663)
x#198#24                                            1 	(obj:0.01445)
x#199#44                                            1 	(obj:0.01581)
x#200#48                                            1 	(obj:0.01071)
